% File represents an instance of a Composite Structure problem to be solved by a CP framework
% Created on 2025-03-26 10:41:20.258
T = 50;
n = 9;
m = 12;
edges = [(1, 2),
(4, 5),
(7, 8),
(3, 2),
(6, 5),
(9, 8),
(4, 1),
(4, 7),
(5, 2),
(5, 8),
(6, 3),
(6, 9)];
counts = [|12, 12, 12, 10,
|12, 10, 12, 6,
|12, 12, 12, 8,
|14, 12, 14, 10,
|12, 10, 12, 10,
|12, 12, 12, 12,
|12, 12, 12, 8,
|12, 10, 12, 8,
|12, 10, 12, 12|];
